36
232
2
5,56,41,23,95,24,75,42,20,92,82,23,3,43,23,10,6,64,34,24,77,86,28,16,56,30,13,87,63,1,38,1,2,3,46,71
72,54,65,12,22,43,72,2,62,84,5,73,31,64,47,69,26,14,58,17,38,20,9,44,14,85,98,5,25,5,64,39,60,61,12,41
1,2,1,2,2,2,2,2,2,2,1,2,2,1,2,2,1,1,1,1,2,1,1,1,1,1,2,2,1,1,1,2,2,1,1,2
